200
150
120
119
119
119
119
117
117
117
116
116
116
115
115
115
114
112
112
112
110
110
110
110
108
108
107
107
106
105
104
103
103
101
101
100
100
97
96
96
96
95
95
95
95
94
94
94
94
94
92
91
90
90
90
89
89
88
88
88
87
86
86
84
84
84
83
83
83
82
82
80
80
80
80
79
78
78
78
77
75
75
75
75
74
74
74
73
73
73
73
73
71
70
70
70
68
68
68
68
67
67
67
67
67
66
66
65
65
63
63
62
62
61
61
61
61
60
59
59
59
56
56
55
55
55
55
53
53
53
53
51
51
51
50
48
47
47
47
46
45
45
45
45
45
45
44
43
43
42
42
41
41
41
41
40
40
40
40
38
38
37
37
36
36
36
35
35
34
34
34
33
33
33
32
32
32
31
31
30
30
29
29
28
27
25
25
25
25
25
25
24
24
22
21
21
21
19
18
16
16
16
